; CiPR-FTQC proof obligations for case_study_random_seed7
; This file asserts the negation of conservative effect bounds.
; A theorem prover/SMT solver should answer unsat.
(set-logic ALL)
(define-fun total_err () Real 29805500000000003/100000000000000000000)
(define-fun sum_err () Real (+ 1/100000 1/100000 1/100000 1/100000 1/12500 1/200000 0 1/40000 10500000000000001/500000000000000000000 1/40000 7/200000000 6000000000000001/100000000000000000000 0 1/50000000 10500000000000001/500000000000000000000 1/125000 1/200000 1/125000))
(assert (not (>= total_err sum_err)))
(check-sat)
(reset-assertions)
(define-fun total_accept () Real 8293173735606139/10000000000000000)
(define-fun sum_accept () Real (* 1 1 1 1 1 1 1 499/500 9801/10000 499/500 197/200 1 1 22/25 9801/10000 1 1 1))
(assert (not (<= total_accept sum_accept)))
(check-sat)
(reset-assertions)
(define-fun total_cycles () Int 104)
(define-fun sum_cycles () Int (+ 2 2 2 2 3 1 0 9 13 9 6 3 0 34 13 2 1 2))
(assert (not (>= total_cycles sum_cycles)))
(check-sat)
(reset-assertions)
(define-fun total_factory_count () Int 4)
(define-fun sum_factory_count () Int (+ 0 0 0 0 0 0 0 1 0 1 1 0 0 1 0 0 0 0))
(assert (not (>= total_factory_count sum_factory_count)))
(check-sat)
(reset-assertions)
(define-fun total_switch_count () Int 4)
(define-fun sum_switch_count () Int (+ 0 0 0 0 0 0 0 0 2 0 0 0 0 0 2 0 0 0))
(assert (not (>= total_switch_count sum_switch_count)))
(check-sat)
(reset-assertions)
(define-fun total_two_qubit_gates () Int 548)
(define-fun sum_two_qubit_gates () Int (+ 0 0 0 0 0 0 0 16 180 16 60 0 0 96 180 0 0 0))
(assert (not (>= total_two_qubit_gates sum_two_qubit_gates)))
(check-sat)
(reset-assertions)
